% seed = 0

mint = 31;
% maxt = 160;

nActs = 62;
dur = [0,3,4,3,2,3,3,3,1,4,4,2,1,3,3,4,1,3,3,1,3,1,2,3,3,5,3,2,1,3,2,1,2,3,4,5,3,2,2,3,1,2,3,3,2,2,3,2,3,3,3,2,2,2,3,2,5,4,2,1,6,0];

nSkills = 9;
sreq = [| 0,0,0,0,0,0,0,0,0,
	| 0,0,1,0,0,0,0,0,0,
	| 0,0,0,0,0,1,0,0,0,
	| 0,0,0,2,1,0,0,0,1,
	| 0,0,1,0,2,0,0,0,0,
	| 0,0,1,0,0,1,0,0,0,
	| 0,0,0,0,0,0,1,0,0,
	| 0,0,0,0,1,1,0,1,0,
	| 0,0,0,1,0,1,0,0,0,
	| 0,0,1,0,1,1,0,0,0,
	| 0,0,2,0,0,1,0,0,0,
	| 0,0,0,0,0,1,0,2,0,
	| 0,0,2,1,0,0,0,0,0,
	| 0,0,0,0,0,1,0,0,0,
	| 0,0,0,1,1,0,0,0,0,
	| 0,1,0,0,0,1,0,0,0,
	| 0,0,0,0,0,1,1,0,0,
	| 0,0,1,0,0,0,0,0,0,
	| 0,0,1,0,0,1,0,0,0,
	| 0,0,2,0,0,1,0,0,0,
	| 0,0,0,0,0,2,0,0,0,
	| 0,0,0,0,0,0,0,1,0,
	| 0,0,3,0,0,0,0,0,0,
	| 0,0,1,0,0,0,0,1,0,
	| 0,0,1,0,0,0,0,0,0,
	| 0,0,1,0,0,0,0,1,0,
	| 0,0,1,0,1,0,0,0,0,
	| 0,1,0,0,1,0,0,0,0,
	| 0,0,1,0,0,2,0,0,0,
	| 0,0,0,0,0,0,1,0,0,
	| 1,1,0,0,0,0,0,0,0,
	| 0,0,1,0,0,2,0,0,0,
	| 0,0,0,0,0,1,0,0,0,
	| 0,1,0,0,0,0,0,1,0,
	| 0,0,0,0,0,1,0,0,0,
	| 0,0,2,1,0,0,0,0,0,
	| 0,0,1,0,0,1,0,1,0,
	| 0,1,0,1,0,0,1,0,0,
	| 0,0,0,0,0,1,0,0,0,
	| 0,0,1,0,1,0,0,1,0,
	| 0,0,0,0,0,0,1,0,0,
	| 0,0,1,0,0,1,0,0,0,
	| 0,0,1,1,0,0,0,0,0,
	| 0,0,1,0,0,0,0,0,0,
	| 0,0,0,2,0,0,0,0,0,
	| 0,1,1,0,0,0,0,0,0,
	| 0,1,1,1,0,0,0,0,0,
	| 0,1,0,0,1,0,0,0,0,
	| 0,1,0,0,0,0,0,0,0,
	| 0,0,0,0,0,1,1,1,0,
	| 0,0,0,1,0,2,0,0,0,
	| 0,0,0,0,1,0,0,0,0,
	| 0,0,1,1,0,0,1,0,0,
	| 0,0,0,0,0,1,0,0,0,
	| 0,0,0,0,1,0,1,0,0,
	| 0,1,0,0,0,0,0,0,0,
	| 0,0,0,0,0,1,1,0,0,
	| 0,0,0,1,1,0,0,0,0,
	| 0,0,0,0,0,1,0,1,0,
	| 0,0,0,0,0,1,0,0,0,
	| 0,1,1,0,0,1,0,0,0,
	| 0,0,0,0,0,0,0,0,0, |];

% SumOfsreq = 123;

nResources = 9;
mastery = [| true,true,true,false,true,true,true,true,true,
	| false,true,true,false,false,false,false,false,false,
	| false,false,false,true,true,true,false,false,false,
	| false,false,false,true,true,true,false,false,true,
	| false,false,false,true,true,true,true,true,true,
	| false,true,true,false,false,true,true,true,true,
	| false,false,false,false,false,true,false,false,false,
	| false,false,true,false,false,false,false,false,false,
	| false,false,true,false,false,false,false,false,false, |];

nPrecs = 112;
pred = [1,1,1,2,2,2,3,3,3,4,4,4,5,5,6,6,6,7,7,8,8,8,9,9,9,10,10,10,11,11,12,12,12,13,13,13,14,14,14,15,15,16,17,18,19,19,20,20,20,21,21,22,23,23,24,25,25,26,26,27,27,28,29,29,30,31,31,31,32,32,32,33,33,33,34,34,35,36,36,36,37,38,39,40,41,41,42,43,44,44,45,45,45,46,47,47,48,49,50,51,52,53,53,54,55,56,57,57,58,59,60,61];
succ = [2,3,4,29,36,21,28,38,8,5,22,15,6,32,9,7,24,25,51,27,12,14,10,11,16,17,13,23,18,53,34,30,39,19,52,43,20,22,54,57,29,27,26,48,44,40,25,33,31,45,47,42,35,40,27,42,36,28,29,35,46,33,50,44,56,49,61,55,35,44,54,57,50,37,61,40,45,46,47,48,51,46,41,53,42,43,56,47,49,51,56,52,48,49,50,53,58,60,55,59,55,57,58,61,59,58,59,60,60,62,62,62];

nUnrels = 1116;
unpred = [2,2,2,2,2,2,2,2,2,2,2,2,2,2,2,2,2,2,2,2,2,2,2,2,2,2,2,2,2,2,2,2,2,2,2,2,2,2,2,2,3,3,3,3,3,3,3,3,3,3,3,3,3,3,3,3,3,3,3,3,4,4,4,4,4,4,4,4,4,4,4,5,5,5,5,5,5,5,5,5,5,5,5,5,6,6,6,6,6,6,6,6,6,6,6,6,6,6,6,6,7,7,7,7,7,7,7,7,7,7,7,7,7,7,7,7,7,7,7,7,7,7,7,7,7,7,7,7,7,7,7,7,7,7,7,7,7,7,8,8,8,8,8,8,8,8,8,8,8,8,8,8,8,8,8,8,9,9,9,9,9,9,9,9,9,9,9,9,9,9,9,9,9,9,9,10,10,10,10,10,10,10,10,10,10,10,10,10,10,10,10,10,10,10,10,10,10,10,10,11,11,11,11,11,11,11,11,11,11,11,11,11,11,11,11,11,11,11,11,11,11,11,11,11,11,11,11,11,11,11,11,11,11,11,11,11,11,11,11,11,11,11,12,12,12,12,12,12,12,12,12,12,12,12,12,12,12,12,12,12,12,12,12,12,12,12,12,12,12,12,12,12,12,12,13,13,13,13,13,13,13,13,13,13,13,13,13,13,13,13,13,13,13,13,13,13,13,13,13,13,13,13,13,13,13,13,13,14,14,14,14,14,14,14,14,14,14,14,14,14,14,14,14,14,14,14,14,14,14,14,14,15,15,15,15,15,15,15,15,15,15,15,15,15,15,15,15,15,15,15,15,15,15,15,15,15,15,15,15,15,15,15,15,15,15,15,15,15,16,16,16,16,16,16,16,16,16,16,16,16,16,16,16,16,16,16,16,16,16,16,16,16,16,16,16,16,16,16,16,16,16,17,17,17,17,17,17,17,17,17,17,17,17,17,17,17,17,17,17,17,17,17,17,17,17,17,17,17,17,17,17,17,18,18,18,18,18,18,18,18,18,18,18,18,18,18,18,18,18,18,18,18,18,18,18,18,18,18,18,18,18,18,18,18,18,18,18,18,18,18,18,18,19,19,19,19,19,19,19,19,19,19,19,19,19,19,19,19,19,19,19,19,19,19,19,19,19,19,19,19,19,19,19,19,19,20,20,20,20,20,20,20,20,20,20,20,20,20,20,20,20,20,20,20,20,20,21,21,21,21,21,21,21,21,21,21,21,21,21,21,21,21,21,21,21,21,21,21,21,21,21,21,21,21,22,22,22,22,22,22,22,22,22,22,22,22,22,22,22,22,22,22,22,22,22,22,22,22,22,22,22,22,22,22,22,22,22,22,22,23,23,23,23,23,23,23,23,23,23,23,23,23,23,23,23,23,23,23,23,23,23,23,23,23,23,24,24,24,24,24,24,24,24,24,24,24,24,24,24,24,24,24,24,24,24,24,24,24,24,24,25,25,25,25,25,25,25,25,25,25,25,25,25,25,25,25,25,25,25,25,25,25,26,26,26,26,26,26,26,26,26,26,26,26,26,26,26,26,26,26,26,26,26,26,26,27,27,27,27,27,27,27,27,27,27,27,27,27,27,27,27,27,27,27,27,27,27,27,28,28,28,28,28,28,28,28,28,28,28,28,28,28,28,28,28,28,28,28,28,28,28,28,28,29,29,29,29,29,29,29,29,29,29,29,29,29,29,29,29,29,29,29,29,29,29,29,29,29,30,30,30,30,30,30,30,30,30,30,30,30,30,30,30,30,30,30,30,30,30,30,30,30,30,30,30,30,31,31,31,31,31,31,31,31,31,31,31,31,31,31,31,31,31,31,31,31,31,31,31,31,31,32,32,32,32,32,32,32,32,32,32,32,32,32,32,32,33,33,33,33,33,33,33,33,33,33,33,33,33,33,33,33,33,33,33,33,33,34,34,34,34,34,34,34,34,34,34,34,34,34,34,34,34,34,34,34,34,35,35,35,35,35,35,35,35,35,35,35,35,35,35,35,35,35,35,36,36,36,36,36,36,36,36,36,36,36,36,36,36,37,37,37,37,37,37,37,37,37,37,37,37,37,37,37,37,37,37,37,37,37,37,38,38,38,38,38,38,38,38,38,38,38,38,38,38,38,38,38,38,38,38,39,39,39,39,39,39,39,39,39,39,40,40,40,40,40,40,40,40,40,40,40,40,40,40,40,40,41,41,41,41,41,41,41,41,41,42,42,42,42,42,42,42,42,42,42,42,42,42,42,42,42,43,43,43,43,43,43,43,43,43,43,44,44,44,44,44,44,44,44,44,44,44,44,44,45,45,45,45,45,45,45,45,45,46,46,46,46,46,46,46,46,46,46,46,46,46,47,47,47,47,47,47,47,48,48,48,48,48,48,48,48,48,48,48,49,49,49,49,49,49,49,49,49,49,49,50,50,50,50,50,50,50,50,50,51,51,51,51,51,51,51,51,51,52,52,52,52,52,52,52,53,53,53,53,54,54,54,54,54,54,55,55,55,55,55,56,56,56,57,57,58,58,59,59,60];
unsucc = [3,4,5,6,7,8,9,10,11,12,13,14,15,16,17,18,19,20,22,23,24,25,26,27,28,30,31,32,33,34,35,37,38,39,40,41,42,43,54,61,4,5,6,7,9,10,11,13,15,16,17,18,19,21,23,24,26,29,32,44,8,12,14,20,21,30,31,34,38,39,41,8,12,14,15,20,21,22,30,31,34,38,39,41,8,12,14,15,20,21,22,30,31,32,34,38,39,41,54,61,8,9,10,11,12,13,14,15,16,17,18,19,20,21,22,23,24,26,27,28,29,30,31,32,33,34,35,37,38,39,40,41,43,44,45,52,54,61,9,10,11,13,15,16,17,18,19,21,23,24,26,28,29,32,38,44,12,14,15,20,21,22,24,25,30,31,32,34,36,38,39,41,42,54,61,11,12,14,15,16,18,20,21,22,24,25,27,30,31,32,34,36,38,39,41,42,46,54,61,12,13,14,15,16,17,19,20,21,22,23,24,25,26,27,28,29,30,31,32,33,34,35,36,37,38,39,40,41,42,43,44,45,46,47,49,50,51,52,54,55,56,61,13,14,15,16,17,18,19,20,21,22,23,24,25,26,27,28,29,31,32,33,35,36,37,38,44,45,46,48,49,51,52,54,14,15,16,17,18,20,21,22,23,24,25,26,27,28,29,30,31,32,33,34,35,36,37,38,39,41,42,45,46,48,54,56,61,15,16,17,18,19,21,23,24,26,27,28,29,30,32,34,35,38,39,40,41,43,44,45,52,16,17,18,19,20,21,22,23,24,25,26,27,28,30,31,32,33,34,35,36,37,38,39,40,41,42,43,45,46,47,48,52,53,54,56,58,61,17,18,19,20,21,22,23,24,25,26,28,29,30,31,32,33,34,36,37,38,39,40,41,42,43,44,47,50,51,53,54,57,61,18,19,20,21,22,23,24,25,27,30,31,32,34,35,36,38,39,40,41,42,43,45,46,47,48,52,53,54,56,58,61,19,20,21,22,23,24,25,26,27,28,29,30,31,32,33,34,35,36,37,38,39,40,41,42,43,44,45,46,47,49,50,51,52,53,54,55,56,57,59,61,20,21,22,23,24,25,26,27,28,29,30,31,32,33,34,35,36,37,38,39,41,42,43,45,46,47,48,50,52,54,55,56,61,21,22,23,24,26,27,28,29,30,32,34,35,38,39,40,41,43,44,45,52,54,22,23,24,25,26,27,28,29,30,31,32,33,34,35,36,37,38,39,40,41,42,43,44,46,49,51,54,61,23,24,25,26,27,28,29,30,31,32,33,34,35,36,37,38,39,40,41,43,44,45,46,47,48,49,50,51,52,53,54,55,57,59,61,24,25,26,27,28,29,30,31,32,33,34,36,37,38,39,41,42,43,44,46,47,49,50,51,54,61,25,26,28,29,30,31,32,33,34,36,37,38,39,40,41,42,43,44,47,50,51,53,54,57,61,26,27,28,29,30,31,32,33,34,35,37,38,39,40,41,43,44,45,51,52,54,61,27,30,31,32,34,35,36,38,39,40,41,42,43,45,46,47,48,52,53,54,56,58,61,28,29,30,31,32,33,34,36,37,38,39,40,41,42,43,44,47,50,51,53,54,57,61,29,30,31,32,34,35,36,38,39,40,41,42,43,44,45,46,47,48,49,52,53,54,56,58,61,30,31,32,33,34,35,36,37,38,39,40,41,42,43,45,46,47,48,52,53,54,56,57,58,61,31,32,33,34,35,36,37,38,39,40,41,42,43,44,45,46,47,48,49,50,51,52,53,54,55,57,59,61,32,33,34,35,36,37,38,39,40,41,42,43,44,45,46,47,48,50,51,52,53,54,56,57,58,33,34,36,37,38,39,40,41,42,43,46,47,50,53,57,34,35,36,38,39,40,41,42,43,44,45,46,47,48,49,52,53,54,56,58,61,35,36,37,38,39,41,42,43,44,45,46,47,48,49,50,51,52,54,55,56,36,37,38,39,40,41,42,43,44,46,47,49,50,51,53,54,57,61,37,38,39,40,41,42,43,44,45,51,52,54,56,61,38,39,40,41,42,43,44,45,46,47,48,49,50,52,53,54,55,56,57,58,60,61,39,40,41,42,43,44,45,47,48,50,51,52,53,54,55,56,57,58,59,61,40,44,45,46,48,49,51,52,54,61,41,42,43,44,45,46,47,48,49,50,51,52,54,55,56,61,44,45,46,48,49,51,52,54,61,43,44,45,46,47,48,49,50,51,52,53,54,55,57,59,61,44,45,46,48,49,51,52,54,56,61,45,46,47,48,50,52,53,54,55,56,57,58,61,46,47,49,50,51,53,54,57,61,47,48,50,51,52,53,54,55,56,57,58,59,61,48,49,51,52,54,56,61,49,50,51,52,53,54,55,56,57,59,61,50,51,52,53,54,55,56,57,58,59,61,51,52,53,54,56,57,58,60,61,52,53,54,55,56,57,58,60,61,53,54,56,57,58,60,61,54,55,56,61,55,56,57,58,59,60,56,57,58,60,61,57,59,61,58,61,59,61,60,61,61];

USEFUL_RES = [{},
	{1,2,6,8,9},
	{1,3,4,5,6,7},
	{1,3,4,5,6},
	{1,2,3,4,5,6,8,9},
	{1,2,3,4,5,6,7,8,9},
	{1,5,6},
	{1,3,4,5,6,7},
	{1,3,4,5,6,7},
	{1,2,3,4,5,6,7,8,9},
	{1,2,3,4,5,6,7,8,9},
	{1,3,4,5,6,7},
	{1,2,3,4,5,6,8,9},
	{1,3,4,5,6,7},
	{1,3,4,5},
	{1,2,3,4,5,6,7},
	{1,3,4,5,6,7},
	{1,2,6,8,9},
	{1,2,3,4,5,6,7,8,9},
	{1,2,3,4,5,6,7,8,9},
	{1,3,4,5,6,7},
	{1,5,6},
	{1,2,6,8,9},
	{1,2,5,6,8,9},
	{1,2,6,8,9},
	{1,2,5,6,8,9},
	{1,2,3,4,5,6,8,9},
	{1,2,3,4,5,6},
	{1,2,3,4,5,6,7,8,9},
	{1,5,6},
	{1,2,6},
	{1,2,3,4,5,6,7,8,9},
	{1,3,4,5,6,7},
	{1,2,5,6},
	{1,3,4,5,6,7},
	{1,2,3,4,5,6,8,9},
	{1,2,3,4,5,6,7,8,9},
	{1,2,3,4,5,6},
	{1,3,4,5,6,7},
	{1,2,3,4,5,6,8,9},
	{1,5,6},
	{1,2,3,4,5,6,7,8,9},
	{1,2,3,4,5,6,8,9},
	{1,2,6,8,9},
	{3,4,5},
	{1,2,6,8,9},
	{1,2,3,4,5,6,8,9},
	{1,2,3,4,5,6},
	{1,2,6},
	{1,3,4,5,6,7},
	{1,3,4,5,6,7},
	{1,3,4,5},
	{1,2,3,4,5,6,8,9},
	{1,3,4,5,6,7},
	{1,3,4,5,6},
	{1,2,6},
	{1,3,4,5,6,7},
	{1,3,4,5},
	{1,3,4,5,6,7},
	{1,3,4,5,6,7},
	{1,2,3,4,5,6,7,8,9},
	{}];

POTENTIAL_ACT = [{2,3,4,5,6,7,8,9,10,11,12,13,14,15,16,17,18,19,20,21,22,23,24,25,26,27,28,29,30,31,32,33,34,35,36,37,38,39,40,41,42,43,44,46,47,48,49,50,51,52,53,54,55,56,57,58,59,60,61},
	{2,5,6,10,11,13,16,18,19,20,23,24,25,26,27,28,29,31,32,34,36,37,38,40,42,43,44,46,47,48,49,53,56,61},
	{3,4,5,6,8,9,10,11,12,13,14,15,16,17,19,20,21,27,28,29,32,33,35,36,37,38,39,40,42,43,45,47,48,50,51,52,53,54,55,57,58,59,60,61},
	{3,4,5,6,8,9,10,11,12,13,14,15,16,17,19,20,21,27,28,29,32,33,35,36,37,38,39,40,42,43,45,47,48,50,51,52,53,54,55,57,58,59,60,61},
	{3,4,5,6,7,8,9,10,11,12,13,14,15,16,17,19,20,21,22,24,26,27,28,29,30,32,33,34,35,36,37,38,39,40,41,42,43,45,47,48,50,51,52,53,54,55,57,58,59,60,61},
	{2,3,4,5,6,7,8,9,10,11,12,13,14,16,17,18,19,20,21,22,23,24,25,26,27,28,29,30,31,32,33,34,35,36,37,38,39,40,41,42,43,44,46,47,48,49,50,51,53,54,55,56,57,59,60,61},
	{3,6,8,9,10,11,12,14,16,17,19,20,21,29,32,33,35,37,39,42,50,51,54,57,59,60,61},
	{2,5,6,10,11,13,18,19,20,23,24,25,26,27,29,32,36,37,40,42,43,44,46,47,53,61},
	{2,5,6,10,11,13,18,19,20,23,24,25,26,27,29,32,36,37,40,42,43,44,46,47,53,61}];
